benchmarks/VRPTW/TSPTW/solution/n150w20.005.txt.solution
1 107 32 65 12 120 118 147 133 104 136 5 16 88 62 63 73 28 8 48 66 19 101 35 84 116 106 30 29 11 75 54 121 24 90 143 74 150 109 6 145 3 56 112 140 99 13 34 25 102 27 82 39 98 76 135 87 77 40 59 81 97 113 26 31 61 18 68 44 60 45 138 141 69 46 21 37 91 23 126 146 92 53 131 117 103 83 57 64 67 125 20 41 132 71 55 100 72 17 9 130 122 96 22 86 15 7 47 149 10 110 51 58 129 128 2 42 134 50 14 79 105 49 137 85 70 78 123 124 111 52 80 139 95 93 94 127 115 43 108 38 89 144 119 36 114 4 148 33 151 142 
846
